units metal
atom_style atomic
read_data simple.data
run 0
