# Enhanced LAMMPS TMD simulation
units metal
atom_style atomic
boundary f f f

# Read initial structure
read_data input.data

# Li-Li interactions using Lennard-Jones potential
pair_style lj/cut 10.0
pair_coeff 1 1 0.05 2.5

# Define atom groups
group mobile id > 0

# Energy minimization
minimize 1.0e-4 1.0e-6 1000 10000

# Initialize velocities
velocity mobile create 300.0 4928459 rot yes dist gaussian

# TMD setup using spring forces towards target positions
# Apply spring forces to guide atoms towards target structure
fix tmd_fix mobile spring/self 10.0

# Temperature control
fix nvt_fix mobile nvt temp 300.0 300.0 100.0

# Output trajectory every 20 steps for smooth animation
dump traj_dump all xyz 20 trajectory.xyz
dump_modify traj_dump element Li

# Thermodynamics output
thermo_style custom step temp press etotal pe ke f_tmd_fix
thermo 100

# Run TMD simulation
run 4000

# Cleanup
unfix tmd_fix
unfix nvt_fix
undump traj_dump
