units metal
atom_style atomic
read_data test_simple.data
run 0
